experiments/sat_smt/run/sat-l/results/sarah.res
solved=true
solvingTime=247.55389404296875
nActions=26