experiments/sat_smt/run/sat-l/results/sarah.out
Timesteps: 1
s UNSATISFIABLE
real 0.07
user 0.00
sys 0.00
Timesteps: 2
s UNSATISFIABLE
real 0.09
user 0.01
sys 0.00
Timesteps: 3
s UNSATISFIABLE
real 0.14
user 0.02
sys 0.00
Timesteps: 4
s UNSATISFIABLE
real 0.13
user 0.04
sys 0.00
Timesteps: 5
s UNSATISFIABLE
real 0.14
user 0.10
sys 0.00
Timesteps: 6
s UNSATISFIABLE
real 0.21
user 0.16
sys 0.00
Timesteps: 7
s UNSATISFIABLE
real 0.54
user 0.48
sys 0.00
Timesteps: 8
s UNSATISFIABLE
real 0.75
user 0.67
sys 0.00
Timesteps: 9
s UNSATISFIABLE
real 1.16
user 1.08
sys 0.00
Timesteps: 10
s UNSATISFIABLE
real 2.41
user 2.32
sys 0.01
Timesteps: 11
s UNSATISFIABLE
real 2.08
user 1.99
sys 0.00
Timesteps: 12
s UNSATISFIABLE
real 2.34
user 2.23
sys 0.00
Timesteps: 13
s UNSATISFIABLE
real 3.52
user 3.40
sys 0.01
Timesteps: 14
s UNSATISFIABLE
real 3.46
user 3.32
sys 0.01
Timesteps: 15
s UNSATISFIABLE
real 5.60
user 5.45
sys 0.02
Timesteps: 16
s UNSATISFIABLE
real 6.36
user 6.18
sys 0.02
Timesteps: 17
s UNSATISFIABLE
real 6.84
user 6.65
sys 0.02
Timesteps: 18
s UNSATISFIABLE
real 8.41
user 8.17
sys 0.02
Timesteps: 19
s UNSATISFIABLE
real 9.95
user 9.72
sys 0.03
Timesteps: 20
s UNSATISFIABLE
real 11.55
user 11.32
sys 0.03
Timesteps: 21
s UNSATISFIABLE
real 15.36
user 15.13
sys 0.03
Timesteps: 22
s UNSATISFIABLE
real 22.73
user 22.42
sys 0.05
Timesteps: 23
s UNSATISFIABLE
real 23.46
user 23.15
sys 0.05
Timesteps: 24
s UNSATISFIABLE
real 29.04
user 28.70
sys 0.06
Timesteps: 25
s UNSATISFIABLE
real 43.32
user 42.72
sys 0.10
Timesteps: 26
s SATISFIABLE
real 48.77
user 48.28
sys 0.09
